 200 80 
 69 56 60 75 19 80 40 19 95 41 40 71 
 98 99 66 92 16 59 91 4 71 95 43 57 
 70 94 45 78 73 63 54 68 36 89 73 25 
 28 35 27 41 57 78 97 26 93 48 61 57 
 16 19 99 35 22 6 13 84 5 74 9 2 
 50 36 57 42 7 10 78 86 43 17 96 57 
 92 53 58 64 38 39 8 28 
 11 
 7 14 17 20 30 40 47 50 56 63 71 
 38 
 2 3 5 7 9 11 13 15 16 17 18 19 
 21 22 24 30 33 35 40 42 43 44 46 47 
 51 53 55 58 65 67 68 69 71 72 74 75 
 77 78 
 17 
 1 8 15 18 24 27 33 34 38 47 50 52 
 59 72 78 79 80 
 16 
 1 2 3 5 9 24 29 30 32 38 40 44 
 46 48 60 75 
 41 
 2 3 4 6 7 9 11 13 14 18 19 23 
 27 30 31 33 34 36 37 38 41 42 46 47 
 50 52 53 54 55 60 62 63 64 65 68 69 
 73 75 76 78 80 
 20 
 5 7 10 12 13 24 26 27 29 33 35 37 
 46 56 58 63 64 67 71 76 
 7 
 10 13 18 35 40 54 80 
 35 
 1 2 4 6 8 16 18 19 21 25 28 33 
 35 36 38 41 43 44 45 46 47 48 52 54 
 58 59 60 61 63 64 65 67 70 73 77 
 80 
 1 2 3 4 5 6 7 8 9 10 11 12 
 13 14 15 16 17 18 19 20 21 22 23 24 
 25 26 27 28 29 30 31 32 33 34 35 36 
 37 38 39 40 41 42 43 44 45 46 47 48 
 49 50 51 52 53 54 55 56 57 58 59 60 
 61 62 63 64 65 66 67 68 69 70 71 72 
 73 74 75 76 77 78 79 80 
 14 
 1 3 6 8 10 11 19 26 34 45 50 54 
 63 72 
 20 
 11 13 16 24 27 29 31 32 38 39 45 49 
 50 51 57 66 67 68 77 79 
 79 
 1 2 3 4 5 6 7 8 9 10 11 12 
 13 14 15 16 17 18 19 20 21 22 23 24 
 25 26 27 28 29 30 31 32 33 34 35 36 
 37 38 39 40 41 42 43 44 45 47 48 49 
 50 51 52 53 54 55 56 57 58 59 60 61 
 62 63 64 65 66 67 68 69 70 71 72 73 
 74 75 76 77 78 79 80 
 25 
 1 2 10 11 12 18 22 23 26 27 29 38 
 40 55 58 59 61 62 64 65 69 75 76 79 
 80 
 10 
 16 24 28 30 32 47 55 64 69 80 
 40 
 4 5 6 7 8 9 11 15 16 17 18 23 
 26 28 29 32 35 39 42 43 45 46 50 52 
 53 56 57 61 65 66 67 69 71 72 74 75 
 77 78 79 80 
 35 
 1 15 17 19 21 22 23 28 29 30 31 33 
 39 41 42 44 46 47 48 51 52 53 55 56 
 60 61 63 65 66 68 69 70 76 78 80 
 24 
 2 8 10 11 13 14 21 24 26 29 30 33 
 35 39 44 52 53 59 66 67 73 74 78 79 
 44 
 1 3 4 5 6 13 14 15 17 21 23 24 
 27 28 31 32 34 36 37 38 40 41 44 45 
 47 49 51 53 55 56 57 58 59 61 62 63 
 64 67 68 69 70 72 75 78 
 37 
 1 2 4 8 10 11 12 13 19 20 21 22 
 24 25 26 27 30 32 33 35 38 41 46 48 
 49 50 51 54 55 56 58 64 65 70 76 78 
 79 
 38 
 6 7 8 12 14 16 17 20 21 22 27 28 
 30 31 35 42 43 49 50 51 53 54 55 56 
 58 61 63 65 66 69 70 73 74 75 76 77 
 78 79 
 37 
 1 2 4 8 9 10 11 14 16 17 19 20 
 21 23 24 25 26 29 30 31 32 36 38 40 
 43 45 48 49 50 51 52 60 70 71 74 75 
 76 
 75 
 1 2 3 4 5 6 7 8 9 10 11 14 
 15 16 17 18 19 20 21 22 23 24 25 26 
 27 28 29 30 31 32 33 34 35 36 37 38 
 39 40 41 42 44 45 46 47 48 49 50 51 
 52 53 54 56 57 58 59 60 61 62 63 64 
 65 66 67 68 69 70 71 72 73 74 75 76 
 77 79 80 
 18 
 1 7 12 15 17 20 24 26 31 39 47 48 
 59 68 70 71 78 80 
 30 
 3 4 6 7 11 12 13 15 18 22 31 32 
 33 34 35 39 40 41 52 55 57 60 62 63 
 64 66 68 77 78 80 
 30 
 1 8 12 14 17 19 21 22 29 32 35 37 
 38 40 43 44 46 47 49 50 58 59 63 66 
 68 69 70 73 76 80 
 52 
 1 2 3 4 5 6 8 10 11 12 13 19 
 24 25 29 30 31 32 34 35 36 37 40 41 
 43 44 45 47 48 51 52 53 55 56 57 58 
 60 61 63 64 65 68 70 71 72 73 74 75 
 76 77 79 80 
 64 
 1 2 4 5 6 7 9 11 13 15 16 17 
 19 20 21 23 24 25 26 27 28 29 30 31 
 32 34 35 36 38 39 40 41 42 43 45 46 
 47 48 50 51 52 53 54 55 57 58 59 60 
 61 62 64 65 66 67 69 70 72 73 74 75 
 76 77 78 80 
 57 
 2 5 6 7 8 10 11 12 13 14 15 16 
 17 19 20 21 22 25 26 27 28 29 30 31 
 35 36 37 38 40 42 43 44 47 48 49 50 
 51 53 54 55 56 57 59 60 63 64 66 67 
 68 69 71 72 75 76 77 78 79 
 40 
 3 4 8 11 12 13 18 21 25 26 28 30 
 32 34 35 36 37 40 42 43 44 45 46 48 
 50 51 52 54 55 56 57 59 60 61 62 63 
 67 70 72 74 
 60 
 1 2 3 6 10 11 12 13 14 15 16 17 
 19 20 22 24 25 27 28 31 33 35 36 37 
 38 39 40 42 43 44 45 46 48 49 50 51 
 52 53 54 55 56 57 58 59 61 63 64 65 
 66 67 69 70 71 73 74 75 76 77 78 79 
 66 
 3 5 6 7 8 9 10 11 12 15 16 17 
 18 19 20 21 22 23 24 25 26 27 28 29 
 30 31 32 33 35 36 37 38 39 40 42 43 
 44 45 46 47 49 50 51 52 53 54 55 56 
 57 59 62 63 64 65 66 67 68 70 71 73 
 74 75 76 77 78 80 
 40 
 1 7 8 10 11 13 17 18 20 22 23 25 
 26 28 30 32 33 38 41 44 45 47 48 49 
 50 52 55 57 62 64 65 66 67 70 71 73 
 75 76 77 79 
 75 
 1 2 3 4 5 6 7 8 9 10 11 12 
 14 15 16 18 19 20 22 23 24 25 26 27 
 28 29 30 31 32 33 34 35 37 38 39 40 
 41 42 43 44 45 46 47 48 49 50 51 52 
 53 54 55 56 57 58 59 60 61 62 63 64 
 65 66 67 68 69 70 71 72 73 75 76 77 
 78 79 80 
 6 
 19 39 46 69 72 77 
 44 
 2 3 5 10 11 12 14 15 16 21 23 24 
 25 26 27 30 31 32 35 38 39 41 42 46 
 48 49 50 51 52 54 59 61 62 64 65 66 
 67 68 72 73 74 77 79 80 
 17 
 2 7 15 21 32 35 36 37 40 43 50 52 
 64 69 71 72 77 
 12 
 1 14 15 22 24 28 30 31 45 60 64 74 
 52 
 1 2 4 7 8 9 10 11 12 13 14 17 
 18 20 21 23 24 25 28 29 30 31 33 34 
 36 38 39 42 44 45 46 49 50 51 53 58 
 59 60 61 62 63 64 66 67 68 70 73 74 
 75 78 79 80 
 8 
 5 6 10 37 42 49 56 69 
 27 
 2 3 5 12 15 22 23 30 31 34 36 38 
 41 51 52 53 55 57 64 67 69 71 72 74 
 75 77 78 
 29 
 6 8 18 19 20 21 27 29 30 33 35 39 
 40 43 50 51 53 58 60 61 65 66 67 68 
 69 71 72 75 78 
 9 
 7 25 29 31 44 52 60 62 71 
 68 
 1 2 3 4 5 6 9 10 11 13 16 17 
 18 19 21 22 23 24 25 26 27 28 29 30 
 31 32 33 34 35 36 37 38 39 40 41 42 
 43 44 45 46 47 48 49 50 51 52 53 54 
 55 56 59 60 62 63 64 65 66 67 69 70 
 71 72 73 74 75 76 77 78 
 38 
 1 2 3 4 5 11 13 14 16 18 20 21 
 24 25 26 29 31 34 36 39 43 47 49 50 
 53 54 55 56 57 58 60 61 65 68 74 75 
 76 77 
 23 
 1 8 12 13 14 16 22 26 29 33 34 35 
 38 41 48 51 54 55 71 72 75 77 78 
 49 
 1 2 4 5 9 10 16 17 18 19 20 21 
 22 23 24 25 29 32 33 34 35 36 37 40 
 41 42 43 44 45 46 47 50 51 54 55 56 
 58 60 62 63 67 69 70 72 73 74 77 78 
 79 
 58 
 1 4 6 7 8 9 10 11 13 14 16 17 
 18 19 21 22 23 24 26 29 30 31 33 34 
 36 37 38 39 40 41 42 43 45 46 48 49 
 50 51 53 55 57 58 59 60 62 63 64 65 
 66 67 68 69 71 72 75 76 77 80 
 33 
 2 6 15 18 19 21 27 30 33 37 40 41 
 43 44 45 48 51 52 55 56 58 60 64 65 
 66 68 70 72 73 74 75 76 77 
 18 
 1 7 9 20 21 33 35 36 40 41 43 48 
 58 62 68 70 75 77 
 6 
 5 17 50 54 66 73 
 77 
 1 2 3 4 5 6 7 8 9 10 11 12 
 13 14 15 16 17 19 20 21 22 23 24 25 
 26 27 28 29 30 31 32 33 34 35 36 37 
 38 39 40 41 42 43 44 45 46 47 48 49 
 50 51 52 53 54 55 56 57 58 59 60 62 
 63 64 65 66 67 68 69 70 71 72 73 74 
 76 77 78 79 80 
 19 
 1 8 13 15 27 33 34 39 45 46 49 50 
 51 53 62 65 68 72 76 
 3 
 71 72 73 
 37 
 2 5 11 12 13 14 17 19 23 24 27 33 
 35 36 38 39 40 44 46 47 49 50 51 52 
 54 61 62 66 70 71 72 73 74 75 76 78 
 79 
 31 
 1 2 12 13 20 22 24 26 27 28 29 31 
 32 34 36 37 38 40 43 49 51 52 54 60 
 61 64 70 73 74 77 78 
 79 
 1 2 3 4 5 6 7 8 9 10 11 12 
 13 14 15 16 17 18 19 20 21 22 23 25 
 26 27 28 29 30 31 32 33 34 35 36 37 
 38 39 40 41 42 43 44 45 46 47 48 49 
 50 51 52 53 54 55 56 57 58 59 60 61 
 62 63 64 65 66 67 68 69 70 71 72 73 
 74 75 76 77 78 79 80 
 13 
 1 3 4 5 15 19 28 46 55 58 65 72 
 73 
 27 
 5 8 10 11 15 18 20 21 22 23 24 27 
 28 29 33 41 42 43 49 50 51 58 70 71 
 72 74 77 
 74 
 1 2 3 4 5 6 7 8 9 10 11 12 
 13 14 16 17 18 19 20 22 23 24 25 28 
 29 30 31 32 33 34 35 36 37 38 39 40 
 41 42 43 44 45 46 47 48 49 50 51 52 
 53 54 55 56 57 58 59 60 61 62 63 64 
 65 66 67 68 69 71 72 73 74 75 76 77 
 78 80 
 55 
 3 4 5 6 7 8 11 12 13 14 15 16 
 17 18 19 22 23 25 26 27 31 34 36 37 
 38 39 40 41 42 43 44 45 46 47 48 50 
 51 52 54 55 56 64 66 67 68 69 70 71 
 73 74 75 76 78 79 80 
 46 
 1 2 3 5 6 7 11 12 13 15 17 19 
 20 21 24 25 27 28 29 32 35 37 38 39 
 42 43 44 47 48 52 54 55 58 59 63 66 
 67 68 69 71 72 73 75 76 79 80 
 49 
 1 3 4 5 6 8 10 11 12 13 14 16 
 17 18 22 25 26 27 28 30 32 36 38 42 
 44 45 48 50 53 54 55 56 57 58 59 60 
 61 63 64 65 66 67 70 72 73 74 75 78 
 80 
 40 
 1 4 6 7 8 10 11 12 15 16 20 21 
 23 24 25 26 27 29 30 31 32 33 41 42 
 48 51 52 53 54 55 56 60 61 62 64 65 
 70 71 74 80 
 15 
 3 13 14 23 34 36 42 43 53 56 58 67 
 75 79 80 
 42 
 1 5 6 7 8 11 12 16 19 20 21 22 
 23 27 28 30 32 34 37 38 40 41 42 43 
 46 47 48 51 52 55 56 57 66 68 70 71 
 72 73 76 77 79 80 
 63 
 2 4 5 6 7 8 9 10 11 12 14 15 
 16 18 19 21 22 23 24 26 27 28 30 31 
 32 33 34 37 39 40 41 43 44 45 46 47 
 48 50 51 52 53 54 55 56 57 58 59 61 
 62 63 64 65 66 67 68 70 71 73 75 76 
 77 78 80 
 63 
 1 2 3 5 6 7 8 9 10 11 12 13 
 14 15 16 17 18 20 22 24 25 26 29 31 
 32 34 35 36 38 41 42 43 44 45 47 48 
 49 50 51 53 54 55 58 59 61 62 63 64 
 65 66 67 68 69 70 72 73 74 75 76 77 
 78 79 80 
 51 
 1 2 3 4 5 6 7 8 9 10 12 13 
 15 16 19 23 24 25 26 27 28 29 31 33 
 36 38 39 41 42 44 45 47 48 49 51 52 
 55 56 57 58 59 60 63 64 66 67 68 70 
 72 74 75 
 72 
 1 3 5 6 7 8 9 10 11 12 13 15 
 16 17 18 19 21 22 23 24 25 26 27 28 
 29 32 33 34 35 37 38 39 40 41 42 43 
 44 45 46 47 48 49 50 51 52 53 54 55 
 56 57 58 59 60 61 62 63 64 65 66 67 
 68 69 70 71 72 73 74 75 77 78 79 80 
 22 
 2 7 10 14 19 26 28 30 32 35 40 41 
 46 47 49 54 60 63 68 71 73 80 
 49 
 1 2 3 4 5 6 7 8 9 10 12 13 
 14 15 16 17 19 21 23 24 25 28 32 33 
 34 35 37 39 41 43 44 46 47 48 51 53 
 56 57 58 59 61 62 65 70 71 72 75 76 
 77 
 8 
 3 7 13 23 24 28 53 68 
 80 
 1 2 3 4 5 6 7 8 9 10 11 12 
 13 14 15 16 17 18 19 20 21 22 23 24 
 25 26 27 28 29 30 31 32 33 34 35 36 
 37 38 39 40 41 42 43 44 45 46 47 48 
 49 50 51 52 53 54 55 56 57 58 59 60 
 61 62 63 64 65 66 67 68 69 70 71 72 
 73 74 75 76 77 78 79 80 
 5 
 1 7 22 64 65 
 43 
 1 2 3 8 12 14 16 18 20 21 22 23 
 24 29 32 36 39 40 42 43 44 45 48 49 
 51 52 53 55 56 57 58 59 60 63 64 66 
 67 68 70 73 76 79 80 
 43 
 1 3 4 5 7 9 10 11 13 15 17 18 
 21 25 26 27 30 31 32 33 35 37 38 39 
 40 46 49 50 53 54 55 56 57 60 63 67 
 69 70 71 73 75 78 80 
 64 
 1 2 3 4 5 6 8 9 10 11 13 14 
 15 16 17 18 21 22 24 25 26 27 28 29 
 32 33 34 35 36 37 38 39 40 42 44 47 
 48 49 50 51 52 53 54 55 57 58 60 61 
 62 63 64 65 66 67 68 69 70 71 72 73 
 74 75 77 78 
 45 
 2 3 4 5 6 9 10 12 16 17 19 20 
 21 24 26 28 31 34 40 42 44 45 47 48 
 50 52 53 55 56 57 58 60 62 63 64 65 
 67 68 69 71 72 73 76 77 79 
 59 
 2 3 4 5 6 8 9 10 11 14 15 16 
 17 18 20 22 24 25 27 30 31 33 34 35 
 36 37 40 41 42 43 44 45 46 47 48 49 
 50 52 53 54 55 56 57 58 59 60 61 65 
 67 68 69 70 71 72 74 76 78 79 80 
 71 
 1 2 3 4 5 7 8 9 10 11 12 13 
 14 15 16 17 18 20 21 22 23 24 26 27 
 28 29 30 31 32 33 35 36 37 39 40 41 
 42 43 44 45 46 47 48 50 51 52 54 55 
 56 57 58 59 60 61 62 63 64 65 66 67 
 68 70 72 73 74 75 76 77 78 79 80 
 11 
 3 7 8 14 17 20 23 55 57 72 80 
 62 
 2 5 6 7 8 10 11 12 15 16 18 19 
 20 22 23 24 25 26 27 29 30 31 32 35 
 36 37 38 40 41 42 43 45 47 48 49 50 
 52 53 54 55 56 57 58 59 60 61 62 63 
 65 66 67 68 69 70 71 72 73 75 77 78 
 79 80 
 47 
 3 4 5 6 7 10 11 12 14 16 17 18 
 19 20 21 24 26 27 28 29 30 32 34 37 
 39 41 44 46 47 49 50 53 57 58 60 61 
 63 65 66 67 70 71 73 74 75 76 80 
 70 
 1 2 3 4 5 6 7 8 9 10 11 12 
 13 14 15 16 20 21 22 23 24 25 26 27 
 28 29 30 31 32 33 34 35 36 37 38 39 
 40 41 42 43 44 45 46 47 48 49 50 51 
 52 53 54 55 56 57 58 61 62 63 65 66 
 67 69 70 71 72 73 75 76 79 80 
 17 
 2 3 6 7 18 23 35 38 43 46 52 58 
 60 61 65 68 78 
 25 
 3 6 9 20 21 22 23 24 28 32 35 36 
 42 44 45 47 48 49 52 59 69 73 76 78 
 80 
 11 
 4 13 18 26 36 48 50 51 65 73 75 
 29 
 5 11 13 14 15 16 23 26 27 28 29 31 
 33 35 40 41 45 46 47 51 52 53 56 62 
 63 64 66 72 75 
 57 
 1 5 6 7 8 9 10 11 12 13 14 15 
 16 18 19 20 21 22 23 26 27 28 30 32 
 33 34 35 36 38 39 40 43 44 45 47 48 
 49 50 52 53 54 55 57 59 60 61 64 65 
 66 67 69 72 73 76 77 79 80 
 56 
 1 3 4 6 7 9 10 11 12 13 14 17 
 18 19 24 25 26 30 31 32 34 35 36 37 
 38 39 40 41 43 44 45 46 47 48 49 50 
 51 52 55 58 59 60 61 62 64 65 66 68 
 69 70 74 75 77 78 79 80 
 66 
 2 3 4 7 8 9 10 11 12 15 16 17 
 18 19 20 21 22 23 24 25 26 27 29 30 
 32 33 34 36 37 39 40 41 42 43 44 46 
 47 48 49 50 52 53 55 58 59 60 61 62 
 63 64 65 66 67 68 69 70 71 72 73 74 
 75 76 77 78 79 80 
 17 
 7 11 27 28 34 36 38 41 43 49 59 62 
 65 66 68 70 77 
 68 
 1 2 3 5 6 7 10 11 12 13 14 15 
 16 17 18 19 20 21 22 24 25 26 27 28 
 29 30 31 32 33 34 35 36 38 39 40 41 
 42 43 45 46 47 48 49 50 51 53 54 56 
 57 58 59 60 61 62 63 64 65 66 67 68 
 69 70 71 73 76 77 79 80 
 41 
 1 6 8 13 14 15 16 20 22 25 26 27 
 28 29 31 33 34 35 37 38 41 42 43 44 
 46 47 50 52 53 57 60 64 65 69 70 71 
 72 73 75 77 80 
 72 
 1 2 3 4 5 6 8 9 10 11 12 13 
 14 15 16 17 18 19 21 22 23 24 25 26 
 27 28 29 31 32 33 34 35 36 37 38 39 
 40 41 42 43 44 45 46 47 48 50 52 54 
 55 56 58 59 60 61 62 64 65 66 67 68 
 69 70 71 72 73 74 75 76 77 78 79 80 
 39 
 2 4 7 8 9 12 13 16 18 19 22 23 
 26 27 29 31 32 39 41 43 44 45 50 55 
 57 58 59 62 66 67 68 69 70 71 75 76 
 78 79 80 
 22 
 2 5 8 9 11 14 18 22 24 25 40 41 
 42 53 55 58 63 66 68 69 77 80 
 50 
 1 6 7 15 16 17 19 20 21 23 25 26 
 27 28 29 30 31 32 35 36 38 41 42 43 
 45 50 51 53 54 55 57 58 59 61 62 63 
 64 65 66 67 69 70 71 72 73 74 75 78 
 79 80 
 33 
 2 3 5 6 13 14 15 16 17 18 20 21 
 22 23 25 26 30 31 33 34 36 38 39 40 
 44 46 49 51 54 58 65 74 78 
 3 
 30 58 62 
 30 
 3 5 10 12 16 17 18 20 23 24 26 28 
 29 34 39 44 45 46 48 49 50 51 54 59 
 65 67 69 70 71 74 
 51 
 5 7 10 11 14 15 16 19 20 24 26 27 
 28 29 30 31 32 33 34 35 36 37 40 42 
 44 45 46 48 49 50 51 52 54 55 56 60 
 62 64 65 66 68 69 70 71 73 75 76 77 
 78 79 80 
 71 
 1 2 3 4 5 6 7 8 10 12 13 14 
 15 18 19 20 21 22 23 24 25 26 27 28 
 29 30 32 33 34 35 36 37 38 39 40 41 
 42 43 44 46 47 48 49 50 51 52 53 54 
 55 56 57 58 59 60 61 63 64 65 66 67 
 68 69 70 71 72 75 76 77 78 79 80 
 42 
 3 4 5 6 7 8 12 16 17 18 20 24 
 25 26 27 28 30 31 34 37 38 40 43 44 
 46 48 52 55 61 62 64 65 67 68 69 70 
 72 73 77 78 79 80 
 45 
 1 2 6 7 9 10 12 13 14 15 17 21 
 22 23 24 27 31 32 33 34 35 38 41 42 
 43 44 47 48 51 53 55 57 59 61 63 64 
 65 67 70 71 72 76 77 78 79 
 60 
 1 2 3 4 5 7 8 10 11 12 13 15 
 17 18 20 21 23 24 25 26 27 28 29 30 
 31 32 34 35 36 37 38 40 41 43 44 45 
 46 47 48 50 51 52 54 55 56 58 59 60 
 61 62 63 64 67 69 71 72 73 74 77 80 
 2 
 25 42 
 23 
 1 4 8 10 12 13 16 17 23 31 33 34 
 44 45 46 49 50 51 52 54 64 65 78 
 27 
 7 8 9 13 19 21 22 23 27 29 32 36 
 38 41 44 46 47 54 55 57 58 63 64 65 
 66 67 68 
 41 
 1 4 6 7 9 10 13 17 18 19 20 21 
 22 23 24 25 26 27 28 30 35 40 44 48 
 51 52 54 55 57 60 63 64 68 69 71 73 
 75 76 78 79 80 
 63 
 4 7 8 9 10 13 14 15 16 17 18 19 
 21 22 23 24 25 26 27 29 30 32 33 36 
 38 39 40 41 43 45 46 47 48 49 50 51 
 52 53 54 55 56 57 58 59 60 61 62 63 
 64 65 66 68 69 70 71 72 73 74 75 76 
 78 79 80 
 74 
 1 2 3 4 5 7 8 9 10 11 12 13 
 14 15 16 17 18 19 20 21 23 24 25 26 
 27 28 29 30 31 32 33 34 35 36 37 38 
 39 40 41 42 44 45 46 47 48 50 51 52 
 53 54 55 56 57 58 60 61 62 63 64 65 
 66 67 68 69 70 71 72 73 74 75 76 77 
 79 80 
 77 
 1 2 3 4 5 6 7 8 9 10 12 13 
 14 15 16 17 18 19 20 22 23 24 25 26 
 27 28 29 30 31 32 33 34 35 36 37 38 
 39 40 41 42 43 44 45 46 47 48 49 50 
 52 53 54 55 56 57 58 59 60 61 62 63 
 64 65 66 67 68 69 70 71 72 73 74 75 
 76 77 78 79 80 
 51 
 1 2 3 4 5 6 7 9 10 11 13 15 
 16 18 21 22 23 24 25 26 27 28 31 32 
 35 36 37 38 40 45 47 50 53 54 55 58 
 59 60 61 64 65 66 67 68 69 70 72 73 
 76 77 79 
 22 
 3 5 6 13 15 20 21 23 33 37 41 50 
 51 52 56 58 59 60 69 71 72 75 
 68 
 2 4 5 6 7 8 9 10 11 12 14 15 
 16 17 18 19 20 21 22 23 24 25 27 28 
 29 30 31 32 35 36 37 38 39 40 41 42 
 44 45 47 48 49 50 51 52 53 54 55 57 
 58 60 62 63 64 66 67 68 69 70 71 72 
 73 74 75 76 77 78 79 80 
 29 
 1 5 8 13 17 23 24 25 26 27 28 30 
 31 32 33 36 40 42 44 48 49 52 55 56 
 63 64 66 70 74 
 44 
 2 6 7 8 11 12 14 15 17 20 23 26 
 27 28 30 31 35 36 37 39 40 44 45 46 
 47 49 50 51 52 53 54 56 63 65 66 67 
 68 70 71 73 74 76 77 78 
 65 
 1 3 4 5 6 7 8 9 10 12 14 15 
 16 17 18 19 20 21 22 23 24 25 26 28 
 29 30 33 34 35 36 37 38 39 43 44 45 
 46 48 49 50 51 52 53 54 55 56 57 60 
 61 62 63 64 65 66 67 68 69 72 74 75 
 76 77 78 79 80 
 33 
 1 6 10 11 12 13 16 23 24 28 30 31 
 36 40 41 43 45 49 51 52 53 56 57 59 
 64 68 70 71 72 74 76 78 79 
 17 
 1 9 11 15 25 28 29 30 35 36 39 43 
 44 46 68 70 77 
 12 
 2 4 9 10 17 18 30 35 46 62 73 80 
 10 
 20 26 28 31 37 50 59 62 64 79 
 30 
 3 11 12 13 16 17 18 20 22 24 28 38 
 39 40 41 44 45 47 51 52 57 58 59 61 
 63 66 67 70 71 74 
 36 
 10 11 14 15 16 17 19 20 22 23 26 30 
 32 33 35 36 39 41 42 44 45 46 49 51 
 52 54 58 59 61 62 66 69 71 75 76 78 
 76 
 1 2 3 4 5 6 7 8 10 11 12 13 
 14 15 16 17 18 19 20 21 22 23 24 25 
 26 27 28 29 30 31 32 33 34 35 36 37 
 38 39 40 41 42 43 44 45 46 48 50 51 
 52 53 54 55 56 57 58 59 60 61 62 63 
 64 65 66 67 68 69 70 71 72 73 74 75 
 76 77 78 79 
 25 
 6 10 16 19 20 21 23 27 28 37 41 45 
 51 53 54 60 65 67 68 71 72 73 74 75 
 76 
 29 
 2 5 7 13 14 17 21 24 28 30 31 32 
 35 41 44 47 50 51 56 57 59 62 65 66 
 68 69 72 77 80 
 56 
 2 4 5 6 7 8 9 11 12 13 14 16 
 18 19 25 28 29 30 31 32 33 35 36 38 
 39 40 41 42 44 46 47 48 49 50 51 52 
 53 55 56 57 58 59 60 62 64 65 66 67 
 68 70 72 74 75 76 79 80 
 13 
 2 14 32 40 53 54 60 61 63 71 76 79 
 80 
 54 
 1 2 3 4 5 6 8 9 14 15 16 17 
 18 19 20 21 23 24 25 26 27 28 30 31 
 32 33 35 36 42 43 44 45 46 48 51 53 
 55 58 59 61 62 64 65 66 67 69 70 72 
 73 74 75 76 77 79 
 46 
 1 2 3 4 5 7 8 9 11 12 13 15 
 17 18 19 20 22 26 27 28 30 32 34 36 
 37 39 41 42 49 50 52 55 57 58 60 61 
 62 63 64 65 66 73 75 78 79 80 
 80 
 1 2 3 4 5 6 7 8 9 10 11 12 
 13 14 15 16 17 18 19 20 21 22 23 24 
 25 26 27 28 29 30 31 32 33 34 35 36 
 37 38 39 40 41 42 43 44 45 46 47 48 
 49 50 51 52 53 54 55 56 57 58 59 60 
 61 62 63 64 65 66 67 68 69 70 71 72 
 73 74 75 76 77 78 79 80 
 50 
 3 5 6 7 8 9 10 11 13 14 16 17 
 19 21 24 25 27 28 29 31 32 33 34 36 
 37 38 43 44 45 47 49 50 51 52 53 55 
 56 57 60 63 65 66 68 69 70 72 73 77 
 78 79 
 7 
 6 15 22 27 57 72 79 
 6 
 8 11 12 46 65 72 
 54 
 1 2 3 4 5 6 7 8 10 11 12 14 
 15 16 17 18 20 21 24 25 26 29 30 32 
 33 35 37 39 40 41 43 44 45 46 50 51 
 53 54 58 59 61 62 63 64 67 68 71 72 
 73 74 77 78 79 80 
 39 
 1 2 3 7 8 10 11 16 17 18 20 21 
 22 24 25 30 31 32 35 36 37 39 40 41 
 46 48 53 57 59 61 62 63 64 65 68 71 
 73 74 77 
 16 
 2 4 7 24 27 28 44 47 49 52 62 63 
 68 71 76 78 
 61 
 2 4 8 9 11 12 13 16 17 18 19 20 
 21 22 23 24 26 27 28 29 30 31 32 33 
 34 35 36 37 39 40 41 43 44 45 46 48 
 49 50 52 53 54 55 58 60 61 63 64 65 
 66 67 68 69 72 73 74 75 76 77 78 79 
 80 
 22 
 1 3 4 8 11 13 17 23 24 25 30 50 
 51 54 55 60 62 63 64 65 66 67 
 69 
 1 2 3 4 6 7 8 9 10 11 12 14 
 15 16 17 18 19 20 21 22 23 24 25 26 
 27 28 29 32 33 34 35 36 37 38 39 42 
 43 44 46 47 48 49 50 51 52 53 54 57 
 58 59 60 61 62 63 64 65 67 68 69 70 
 71 72 73 74 75 76 77 78 80 
 43 
 1 2 3 4 5 6 13 15 16 17 18 21 
 24 25 27 29 34 36 37 39 40 41 43 44 
 46 47 48 49 51 52 54 55 58 59 60 64 
 66 68 69 70 71 74 77 
 69 
 1 2 3 4 5 6 7 8 9 11 12 13 
 14 15 16 17 18 20 21 22 23 24 25 27 
 28 29 30 31 32 34 36 37 38 39 40 41 
 42 43 44 45 47 48 49 53 54 55 56 57 
 58 59 60 61 64 65 66 67 68 69 70 71 
 72 73 74 75 76 77 78 79 80 
 80 
 1 2 3 4 5 6 7 8 9 10 11 12 
 13 14 15 16 17 18 19 20 21 22 23 24 
 25 26 27 28 29 30 31 32 33 34 35 36 
 37 38 39 40 41 42 43 44 45 46 47 48 
 49 50 51 52 53 54 55 56 57 58 59 60 
 61 62 63 64 65 66 67 68 69 70 71 72 
 73 74 75 76 77 78 79 80 
 28 
 2 5 11 16 20 21 26 28 31 32 33 34 
 36 38 40 43 46 47 48 50 53 54 68 69 
 74 75 76 77 
 62 
 1 2 4 5 6 7 9 10 11 12 13 14 
 15 16 17 18 19 20 21 22 24 25 27 28 
 29 30 31 32 33 34 35 36 37 38 39 41 
 45 46 47 48 49 51 52 53 54 55 56 57 
 59 60 61 62 64 66 69 70 72 73 76 77 
 78 80 
 13 
 7 13 21 29 44 47 48 54 63 68 73 75 
 76 
 59 
 1 2 4 5 6 8 10 11 12 13 14 15 
 16 17 19 21 22 23 24 25 26 28 30 31 
 32 33 34 35 36 37 38 40 42 44 45 48 
 50 51 53 54 57 58 59 60 61 62 64 65 
 66 67 68 70 71 72 73 74 76 77 78 
 56 
 1 3 4 5 6 7 8 9 10 12 13 14 
 16 17 19 20 21 22 23 25 27 28 29 31 
 33 34 35 36 37 38 39 41 44 45 46 47 
 48 49 50 51 53 54 56 57 60 62 63 64 
 67 72 73 74 75 76 77 78 
 39 
 3 8 12 13 14 18 19 20 22 23 24 28 
 29 30 32 34 35 39 41 42 45 48 49 50 
 51 53 55 56 59 61 63 64 66 67 68 72 
 73 74 78 
 47 
 2 4 8 9 13 14 17 18 20 21 24 25 
 26 27 29 30 33 34 35 38 39 40 44 46 
 48 49 50 51 52 53 56 57 59 60 61 62 
 66 69 70 72 73 75 76 77 78 79 80 
 21 
 1 17 22 23 29 31 32 34 36 37 41 44 
 49 50 51 56 63 68 76 79 80 
 66 
 2 4 5 6 7 8 9 10 11 12 13 14 
 15 16 17 20 21 22 23 24 25 27 28 29 
 30 31 32 33 34 35 38 39 40 42 43 44 
 46 47 48 49 51 52 53 54 56 57 58 59 
 60 61 62 63 64 65 66 67 68 69 70 71 
 74 75 76 77 78 80 
 52 
 1 2 3 4 5 6 7 9 11 12 13 14 
 15 17 18 19 21 22 24 26 27 29 30 31 
 32 34 36 37 38 39 41 42 43 45 46 50 
 53 55 58 59 60 61 63 66 67 68 69 70 
 75 77 78 80 
 43 
 1 4 5 6 7 9 11 14 15 16 17 18 
 24 29 31 33 35 36 37 39 40 41 43 47 
 48 49 51 52 54 55 56 58 61 64 66 70 
 74 75 76 77 78 79 80 
 35 
 3 7 8 9 14 15 16 17 19 21 25 26 
 27 34 39 41 42 45 46 51 52 54 58 59 
 62 63 64 67 68 69 74 75 76 78 79 
 21 
 8 9 17 22 23 27 28 32 38 42 46 47 
 49 52 55 56 60 62 68 70 79 
 30 
 1 2 4 5 8 17 23 24 26 29 32 37 
 41 45 50 51 53 55 59 60 61 62 65 67 
 68 70 72 73 78 80 
 47 
 4 5 7 8 9 14 15 17 18 19 23 24 
 26 28 29 30 33 35 36 40 42 43 44 46 
 47 48 49 50 51 53 54 57 58 59 61 63 
 64 65 66 71 72 73 76 77 78 79 80 
 45 
 1 4 5 7 8 9 10 12 13 14 15 17 
 22 23 25 28 29 32 33 34 35 36 37 38 
 39 43 44 45 49 50 52 56 58 61 63 64 
 67 68 69 71 72 73 74 77 80 
 36 
 3 7 9 11 12 13 16 18 21 22 26 27 
 28 30 35 36 38 39 40 41 42 47 52 53 
 55 57 58 59 61 62 63 65 66 67 72 80 
 67 
 1 2 3 4 5 6 9 10 12 13 14 15 
 16 17 18 20 21 23 25 26 27 28 31 32 
 33 34 36 37 38 39 40 41 42 43 44 45 
 46 47 48 49 50 51 52 54 55 56 57 58 
 60 61 62 63 65 66 68 69 70 71 72 73 
 74 75 76 77 78 79 80 
 47 
 2 3 4 6 7 8 9 10 11 12 14 17 
 19 20 21 22 23 24 25 26 29 34 38 39 
 41 42 43 45 46 47 48 49 50 51 55 56 
 59 64 65 68 69 70 72 73 74 77 80 
 50 
 1 2 3 4 6 12 13 14 16 17 18 19 
 22 26 27 28 30 31 32 33 34 35 39 41 
 42 44 45 46 47 48 51 53 55 58 60 61 
 62 63 65 69 70 72 73 74 75 76 77 78 
 79 80 
 6 
 8 16 27 45 69 78 
 69 
 1 2 3 4 5 6 8 11 12 13 15 16 
 17 18 19 20 21 22 23 24 25 26 27 28 
 30 32 33 34 35 36 37 39 40 41 42 43 
 44 45 46 47 49 50 51 52 54 55 56 58 
 59 61 62 63 64 65 66 67 68 69 70 71 
 72 73 74 75 76 77 78 79 80 
 59 
 2 3 4 5 6 8 9 10 15 16 17 20 
 22 23 24 25 26 27 29 30 31 33 34 36 
 37 39 41 42 43 44 45 46 47 48 49 51 
 52 54 56 57 58 59 61 62 63 65 66 67 
 68 69 70 71 73 74 75 76 77 78 80 
 75 
 1 2 3 4 5 6 7 8 9 10 11 12 
 13 14 15 16 18 19 20 21 22 23 24 25 
 26 27 28 29 30 31 32 33 34 35 36 37 
 38 39 40 41 42 43 44 45 46 47 48 49 
 50 51 52 53 54 55 56 57 59 60 61 62 
 63 65 66 67 68 69 72 73 74 75 76 77 
 78 79 80 
 12 
 4 6 20 37 42 52 58 59 61 62 65 69 
 62 
 1 2 3 4 5 6 7 8 9 10 11 12 
 13 14 15 16 17 18 19 21 22 24 25 26 
 27 28 30 31 33 36 37 38 39 42 43 44 
 47 49 51 52 53 54 55 56 59 60 61 63 
 64 65 66 67 68 69 70 71 72 73 75 77 
 78 79 
 6 
 1 3 7 17 38 76 
 10 
 2 11 12 18 20 21 42 56 59 64 
 68 
 1 2 3 4 5 6 7 9 10 11 12 13 
 14 15 16 17 18 19 20 24 25 26 27 28 
 29 30 31 32 34 35 36 37 39 40 41 42 
 44 46 47 48 49 50 51 53 54 56 57 58 
 59 60 62 63 64 65 66 67 68 69 70 71 
 72 73 74 76 77 78 79 80 
 47 
 1 2 7 9 12 14 18 25 26 28 29 30 
 31 33 35 36 37 38 39 41 42 43 44 45 
 46 47 48 49 50 51 53 54 55 56 59 62 
 63 64 65 66 67 68 72 73 74 76 78 
 11 
 3 7 8 23 27 28 29 41 44 45 70 
 28 
 5 7 8 9 11 12 16 18 21 23 27 31 
 32 33 34 38 40 42 43 52 53 55 56 58 
 60 69 72 80 
 73 
 1 2 3 4 5 7 8 9 10 11 12 13 
 14 17 18 19 20 21 22 23 24 25 28 29 
 30 31 33 34 35 36 38 39 40 41 42 43 
 44 45 46 47 48 49 50 51 52 53 54 55 
 56 57 58 59 60 61 62 63 64 65 66 67 
 68 69 70 71 72 73 74 75 76 77 78 79 
 80 
 56 
 2 4 5 6 7 10 11 12 13 15 16 21 
 22 23 24 25 27 28 29 30 32 33 35 36 
 37 38 39 41 42 44 45 47 48 49 50 51 
 52 54 56 58 59 60 61 62 63 65 68 69 
 70 71 74 75 77 78 79 80 
 55 
 1 2 4 5 6 7 9 12 14 15 17 18 
 19 22 23 24 25 26 28 30 32 34 35 37 
 38 39 40 41 43 44 45 46 47 48 51 52 
 53 54 55 56 57 60 61 62 63 64 65 66 
 69 70 73 74 76 79 80 
 80 
 1 2 3 4 5 6 7 8 9 10 11 12 
 13 14 15 16 17 18 19 20 21 22 23 24 
 25 26 27 28 29 30 31 32 33 34 35 36 
 37 38 39 40 41 42 43 44 45 46 47 48 
 49 50 51 52 53 54 55 56 57 58 59 60 
 61 62 63 64 65 66 67 68 69 70 71 72 
 73 74 75 76 77 78 79 80 
 54 
 2 3 4 6 7 8 9 10 12 16 17 20 
 21 22 23 24 26 27 28 30 31 32 33 34 
 35 36 37 38 39 40 42 44 45 46 47 48 
 49 50 52 53 56 59 60 61 62 64 65 69 
 70 71 72 73 76 77 
 65 
 1 2 3 4 5 8 9 10 11 12 13 14 
 15 16 17 18 19 20 21 22 24 25 26 27 
 28 30 31 32 34 35 36 37 38 39 40 41 
 42 43 44 46 47 48 49 52 53 54 55 57 
 58 59 60 61 64 65 66 67 68 69 70 72 
 74 76 78 79 80 
 74 
 1 2 3 4 5 6 7 8 9 10 11 13 
 14 15 16 17 18 19 21 22 23 24 25 26 
 27 28 29 30 31 32 33 35 36 37 38 40 
 41 42 43 44 45 46 47 48 49 50 51 52 
 53 55 56 57 58 59 60 61 62 63 64 65 
 66 67 68 69 70 71 72 73 74 76 77 78 
 79 80 
 6 
 16 53 60 61 62 78 
 77 
 1 2 3 4 5 6 7 8 9 10 11 13 
 14 15 16 17 18 19 20 21 22 23 24 25 
 26 27 28 29 30 31 32 33 34 35 36 37 
 38 39 40 41 42 44 45 46 47 48 49 50 
 51 52 53 54 55 56 57 58 59 60 61 62 
 63 64 65 67 68 69 70 71 72 73 74 75 
 76 77 78 79 80 
 41 
 2 5 7 10 12 14 19 20 21 24 25 26 
 29 30 31 32 33 34 36 37 41 43 44 45 
 47 48 50 51 52 53 55 56 62 64 67 68 
 69 70 74 79 80 
 40 
 2 6 7 8 10 11 12 13 19 20 21 22 
 23 26 27 31 33 35 38 41 43 44 45 48 
 49 51 52 54 56 60 61 62 63 65 66 67 
 69 75 79 80 
 57 
 1 2 5 7 8 9 10 11 13 14 15 16 
 17 18 19 20 21 23 24 28 29 30 31 34 
 35 37 38 39 40 41 42 43 46 47 49 50 
 51 53 54 56 58 59 60 62 63 64 66 68 
 69 70 72 73 74 75 76 77 80 
 9 
 9 20 22 43 49 57 62 78 80 
 24 
 2 12 13 14 17 20 21 22 23 33 40 45 
 52 54 57 59 62 63 66 68 71 74 76 78 
 44 
 1 3 4 6 7 8 10 11 12 13 14 15 
 17 19 20 24 27 28 29 31 35 36 42 43 
 44 46 53 54 55 56 59 61 62 64 65 67 
 68 70 71 72 73 74 77 79 
 24 
 1 4 5 11 16 19 20 26 39 42 43 44 
 49 50 51 55 58 59 62 72 73 74 75 77 
 63 
 3 4 5 6 7 8 9 10 11 12 13 14 
 15 16 17 18 19 21 22 23 24 26 28 29 
 30 32 34 35 36 37 38 39 40 41 42 44 
 45 46 47 48 49 51 52 55 56 57 58 60 
 61 62 64 65 66 68 69 71 72 74 75 76 
 78 79 80 
 44 
 1 2 3 4 10 12 13 14 18 19 21 22 
 24 27 28 30 31 33 35 37 41 42 43 45 
 47 48 49 51 52 56 57 60 62 64 65 67 
 69 70 71 72 76 77 79 80 
 2 
 53 58 
 35 
 5 6 8 9 10 15 16 22 25 27 28 29 
 33 34 41 43 47 48 52 54 55 57 58 59 
 63 64 66 67 71 72 74 75 77 78 80 
 72 
 1 2 3 5 6 8 9 11 12 14 15 16 
 17 18 19 20 21 22 23 24 25 26 27 28 
 29 30 31 32 33 34 35 36 37 38 39 40 
 41 42 43 44 45 46 47 48 50 51 52 53 
 54 55 56 57 58 59 60 63 64 65 67 68 
 69 70 71 72 73 74 75 76 77 78 79 80 
 64 
 1 2 4 5 6 8 9 10 11 12 13 15 
 16 18 19 20 21 22 23 25 26 27 28 29 
 31 34 35 37 39 40 41 42 43 44 45 46 
 47 49 50 51 52 53 54 55 57 58 59 60 
 61 62 63 65 66 68 69 70 71 72 74 75 
 77 78 79 80 
 51 
 1 2 4 5 6 7 9 10 11 17 18 19 
 20 23 24 25 28 29 31 32 33 34 36 37 
 38 39 40 42 43 45 46 47 48 50 52 53 
 54 56 57 58 64 65 70 71 72 73 74 75 
 76 77 78 
 